(set-logic QF_S)
(declare-fun J () String)
(declare-fun I () String)
(declare-fun H () String)
(declare-fun L () String)
(declare-fun N () String)
(declare-fun O () String)
(declare-fun M () String)
(declare-fun P () String)
(assert (= (str.++  I H "aaa" I H "aab" I I "b" M "ab" N N "b" O)  (str.++  "a" H I "aa" J J "aa" J J J "aa" J "b" L L L L "ba" M "a" M "b" P P "baa") ))
(check-sat)
(get-model)
